clingo version 5.6.2
Reading from ...etition/0027-graph_colouring-135-0.asp ...
Solving...
UNSATISFIABLE

Models       : 0
Calls        : 1
Time         : 9.579s (Solving: 9.37s 1st Model: 0.00s Unsat: 9.37s)
CPU Time     : 9.477s

Choices      : 374810  
Conflicts    : 344354   (Analyzed: 344353)
Restarts     : 1021     (Average: 337.27 Last: 7876)
Problems     : 1        (Average Length: 0.00 Splits: 0)
Lemmas       : 344353   (Deleted: 315729)
  Binary     : 233      (Ratio:   0.07%)
  Ternary    : 1238     (Ratio:   0.36%)
  Conflict   : 344353   (Average Length:   25.2 Ratio: 100.00%) 
  Loop       : 0        (Average Length:    0.0 Ratio:   0.00%) 
  Other      : 0        (Average Length:    0.0 Ratio:   0.00%) 
Backjumps    : 344353   (Average:  1.07 Max:   9 Sum: 370102)
  Executed   : 344353   (Average:  1.07 Max:   9 Sum: 370102 Ratio: 100.00%)
  Bounded    : 0        (Average:  0.00 Max:   0 Sum:      0 Ratio:   0.00%)

Rules        : 19184   
Atoms        : 3516    
Bodies       : 1330    
Equivalences : 2619     (Atom=Atom: 19 Body=Body: 649 Other: 1951)
Tight        : Yes
Variables    : 793      (Eliminated:    0 Frozen:    0)
Constraints  : 7622     (Binary:  89.8% Ternary:   0.1% Other:  10.1%)

